
Gurobi 6.5.2 (win64) logging started 07/23/16 03:02:28


Gurobi 6.5.2 (win64) logging started 07/23/16 03:02:28

Optimize a model with 19156 rows, 1369 columns and 41960 nonzeros
Coefficient statistics:
  Matrix range    [4e-06, 1e+03]
  Objective range [1e+00, 1e+00]
  Bounds range    [1e+00, 1e+00]
  RHS range       [1e+00, 1e+03]
Found heuristic solution: objective 840.644
Presolve removed 19130 rows and 1343 columns
Presolve time: 0.01s
Presolved: 26 rows, 26 columns, 80 nonzeros
Found heuristic solution: objective 253.2401469
Variable types: 26 continuous, 0 integer (0 binary)

Root relaxation: objective 2.102179e+02, 18 iterations, 0.00 seconds

    Nodes    |    Current Node    |     Objective Bounds      |     Work
 Expl Unexpl |  Obj  Depth IntInf | Incumbent    BestBd   Gap | It/Node Time

*    0     0               0     210.2178910  210.21789  0.00%     -    0s

Explored 0 nodes (18 simplex iterations) in 0.01 seconds
Thread count was 8 (of 8 available processors)

Optimal solution found (tolerance 1.00e-04)
Best objective 2.102178909916e+02, best bound 2.102178909916e+02, gap 0.0%

Wrote requested result file 'H2\instance18\\Results18EC_Sol6.lp'

